(set-option :print-success false)
(set-logic QF_UF)
(declare-sort x99 0)
(declare-sort x145 0)
(declare-fun x194 () x145)
(declare-fun x179 () x145)
(declare-fun x265 () x145)
(declare-fun x191 (x145 x145) x145)
(declare-fun x84 (x145) x145)
(declare-fun x132 () x145)
(declare-fun x182 () x145)
(declare-fun x201 () x145)
(declare-fun x193 (x145 x145) x145)
(declare-fun x120 () x145)
(declare-fun x239 () x145)
(declare-fun x178 () x145)
(assert (let ((x40 (x193 x132 x239)) (x237 (x193 x194 x201)) (x206 (x193 x201 x179)) (x162 (x193 x201 x239)) (x212 (x193 x194 x239)) (x168 (x193 x201 x132)) (x39 (x193 x194 x132)) (x203 (x193 x201 x194)) (x177 (x193 x132 x178)) (x50 (x193 x178 x179)) (x104 (x193 x178 x194)) (x46 (x193 x239 x239)) (x246 (x193 x132 x132)) (x163 (x193 x239 x194)) (x183 (x193 x179 x194)) (x64 (x193 x178 x239)) (x16 (x193 x194 x178)) (x263 (x193 x179 x179)) (x98 (x193 x194 x179)) (x205 (x193 x132 x201)) (x122 (x193 x178 x201)) (x82 (x193 x239 x179)) (x24 (x193 x179 x178)) (x150 (x193 x132 x179)) (x137 (x193 x178 x178)) (x158 (x193 x179 x132)) (x169 (x193 x239 x178)) (x211 (x193 x179 x239)) (x17 (x193 x179 x201)) (x18 (x193 x201 x201)) (x229 (x193 x239 x132)) (x32 (x193 x194 x194)) (x248 (x193 x178 x132)) (x173 (x193 x201 x178)) (x216 (x193 x132 x194)) (x5 (x193 x239 x201))) (and (and (and (or (= x150 x132) (or (= x150 x179) (or (= x239 x150) (or (= x150 x201) (or (= x194 x150) (= x178 x150)))))) (and (and (and (or (= x216 x132) (or (= x179 x216) (or (or (= x201 x216) (or (= x194 x216) (= x216 x178))) (= x239 x216)))) (or (or (or (or (or (= x194 x177) (= x177 x178)) (= x201 x177)) (= x239 x177)) (= x179 x177)) (= x177 x132))) (or (= x205 x132) (or (= x179 x205) (or (or (or (= x205 x194) (= x178 x205)) (= x201 x205)) (= x239 x205))))) (or (or (or (= x239 x40) (or (= x40 x201) (or (= x178 x40) (= x40 x194)))) (= x179 x40)) (= x132 x40)))) (or (or (or (= x239 x246) (or (or (= x246 x194) (= x178 x246)) (= x246 x201))) (= x246 x179)) (= x246 x132))) (and (and (and (or (or (or (or (or (= x263 x178) (= x263 x194)) (= x201 x263)) (= x263 x239)) (= x263 x179)) (= x132 x263)) (and (or (or (or (or (or (= x178 x211) (= x211 x194)) (= x201 x211)) (= x239 x211)) (= x211 x179)) (= x132 x211)) (and (and (or (or (or (or (or (= x183 x178) (= x194 x183)) (= x183 x201)) (= x183 x239)) (= x179 x183)) (= x132 x183)) (or (or (or (= x24 x239) (or (= x201 x24) (or (= x178 x24) (= x194 x24)))) (= x24 x179)) (= x132 x24))) (or (= x132 x17) (or (or (= x239 x17) (or (= x201 x17) (or (= x17 x178) (= x17 x194)))) (= x17 x179)))))) (or (= x132 x158) (or (or (or (= x158 x201) (or (= x158 x194) (= x158 x178))) (= x158 x239)) (= x158 x179)))) (and (and (and (and (and (and (and (or (or (or (= x239 x203) (or (or (= x203 x194) (= x203 x178)) (= x201 x203))) (= x203 x179)) (= x132 x203)) (or (= x132 x173) (or (= x179 x173) (or (or (or (= x194 x173) (= x178 x173)) (= x173 x201)) (= x239 x173))))) (or (or (or (or (= x201 x18) (or (= x18 x178) (= x18 x194))) (= x18 x239)) (= x18 x179)) (= x132 x18))) (or (or (or (or (= x201 x162) (or (= x162 x194) (= x178 x162))) (= x162 x239)) (= x179 x162)) (= x162 x132))) (or (= x206 x132) (or (= x206 x179) (or (or (= x201 x206) (or (= x206 x194) (= x206 x178))) (= x239 x206))))) (or (= x132 x168) (or (= x179 x168) (or (= x239 x168) (or (or (= x194 x168) (= x178 x168)) (= x168 x201)))))) (and (and (and (and (or (= x212 x132) (or (or (= x212 x239) (or (or (= x178 x212) (= x194 x212)) (= x201 x212))) (= x179 x212))) (and (and (or (= x32 x132) (or (= x179 x32) (or (or (= x201 x32) (or (= x178 x32) (= x194 x32))) (= x32 x239)))) (or (or (= x16 x179) (or (or (or (= x194 x16) (= x178 x16)) (= x16 x201)) (= x16 x239))) (= x132 x16))) (or (= x237 x132) (or (or (= x239 x237) (or (or (= x194 x237) (= x237 x178)) (= x237 x201))) (= x237 x179))))) (or (or (= x179 x98) (or (or (= x201 x98) (or (= x178 x98) (= x194 x98))) (= x239 x98))) (= x132 x98))) (or (or (or (= x39 x239) (or (= x39 x201) (or (= x178 x39) (= x194 x39)))) (= x39 x179)) (= x39 x132))) (and (or (= x132 x248) (or (= x179 x248) (or (or (= x201 x248) (or (= x194 x248) (= x178 x248))) (= x239 x248)))) (and (and (or (or (or (or (= x64 x201) (or (= x64 x178) (= x194 x64))) (= x64 x239)) (= x179 x64)) (= x132 x64)) (and (and (or (= x104 x132) (or (or (or (= x104 x201) (or (= x194 x104) (= x104 x178))) (= x104 x239)) (= x104 x179))) (or (= x137 x132) (or (= x137 x179) (or (= x137 x239) (or (= x201 x137) (or (= x137 x194) (= x137 x178))))))) (or (or (= x179 x122) (or (= x239 x122) (or (or (= x122 x178) (= x122 x194)) (= x122 x201)))) (= x132 x122)))) (or (= x132 x50) (or (= x179 x50) (or (= x239 x50) (or (= x201 x50) (or (= x50 x178) (= x50 x194)))))))))) (and (and (and (or (or (or (= x46 x239) (or (or (= x194 x46) (= x178 x46)) (= x46 x201))) (= x179 x46)) (= x46 x132)) (and (or (or (= x179 x5) (or (or (or (= x5 x194) (= x178 x5)) (= x201 x5)) (= x239 x5))) (= x5 x132)) (and (or (= x169 x132) (or (= x179 x169) (or (= x169 x239) (or (= x201 x169) (or (= x194 x169) (= x169 x178)))))) (or (or (or (= x163 x239) (or (or (= x163 x194) (= x163 x178)) (= x201 x163))) (= x163 x179)) (= x132 x163))))) (or (= x82 x132) (or (or (or (= x201 x82) (or (= x178 x82) (= x194 x82))) (= x82 x239)) (= x179 x82)))) (or (or (= x179 x229) (or (or (or (= x229 x178) (= x229 x194)) (= x201 x229)) (= x229 x239))) (= x132 x229))))))))
(assert (let ((x17 (x193 x201 x179)) (x246 (x193 x132 x132)) (x177 (x193 x178 x132)) (x205 (x193 x201 x132)) (x183 (x193 x194 x179)) (x263 (x193 x179 x179)) (x39 (x193 x132 x194)) (x203 (x193 x194 x201)) (x98 (x193 x179 x194)) (x137 (x193 x178 x178)) (x40 (x193 x239 x132)) (x150 (x193 x179 x132)) (x64 (x193 x239 x178)) (x32 (x193 x194 x194)) (x173 (x193 x178 x201)) (x168 (x193 x132 x201)) (x50 (x193 x179 x178)) (x229 (x193 x132 x239)) (x16 (x193 x178 x194)) (x46 (x193 x239 x239)) (x24 (x193 x178 x179)) (x212 (x193 x239 x194)) (x169 (x193 x178 x239)) (x122 (x193 x201 x178)) (x163 (x193 x194 x239)) (x18 (x193 x201 x201)) (x237 (x193 x201 x194)) (x216 (x193 x194 x132)) (x211 (x193 x239 x179)) (x248 (x193 x132 x178)) (x5 (x193 x201 x239)) (x82 (x193 x179 x239)) (x104 (x193 x194 x178)) (x162 (x193 x239 x201)) (x158 (x193 x132 x179)) (x206 (x193 x179 x201))) (and (and (and (and (and (not (= x158 x211)) (and (and (and (and (not (= x17 x211)) (and (not (= x183 x158)) (and (not (= x183 x263)) (and (and (not (= x183 x17)) (and (and (not (= x24 x263)) (and (and (not (= x24 x17)) (not (= x183 x24))) (not (= x211 x24)))) (not (= x24 x158)))) (not (= x183 x211)))))) (not (= x263 x17))) (not (= x158 x17))) (not (= x263 x211)))) (not (= x263 x158))) (and (and (and (and (and (and (not (= x50 x64)) (and (and (not (= x122 x50)) (and (not (= x64 x122)) (and (not (= x248 x104)) (and (and (and (and (not (= x248 x137)) (and (and (and (not (= x122 x137)) (not (= x137 x104))) (not (= x137 x64))) (not (= x137 x50)))) (not (= x122 x104))) (not (= x64 x104))) (not (= x50 x104)))))) (not (= x122 x248)))) (not (= x64 x248))) (not (= x248 x50))) (and (and (not (= x39 x212)) (and (not (= x98 x212)) (and (not (= x39 x237)) (and (not (= x98 x237)) (and (not (= x212 x237)) (and (not (= x39 x32)) (and (not (= x98 x32)) (and (not (= x32 x212)) (and (not (= x32 x237)) (and (not (= x16 x39)) (and (and (and (not (= x16 x32)) (not (= x237 x16))) (not (= x16 x212))) (not (= x16 x98))))))))))))) (not (= x39 x98)))) (and (and (and (and (and (and (not (= x162 x18)) (and (not (= x203 x168)) (and (and (not (= x162 x203)) (and (not (= x18 x203)) (and (and (not (= x206 x173)) (and (and (not (= x173 x203)) (not (= x18 x173))) (not (= x173 x162)))) (not (= x168 x173))))) (not (= x203 x206))))) (not (= x18 x206))) (not (= x168 x18))) (not (= x162 x206))) (not (= x168 x162))) (not (= x168 x206)))) (and (and (and (not (= x82 x46)) (and (not (= x229 x5)) (and (not (= x82 x5)) (and (and (not (= x163 x229)) (and (not (= x163 x82)) (and (and (not (= x163 x5)) (and (and (not (= x169 x82)) (and (not (= x169 x46)) (and (not (= x163 x169)) (not (= x5 x169))))) (not (= x169 x229)))) (not (= x46 x163))))) (not (= x46 x5)))))) (not (= x46 x229))) (not (= x82 x229))))) (and (not (= x150 x246)) (and (not (= x246 x40)) (and (and (not (= x246 x205)) (and (not (= x205 x150)) (and (not (= x205 x40)) (and (and (and (and (and (not (= x177 x246)) (and (and (and (not (= x205 x177)) (not (= x177 x216))) (not (= x40 x177))) (not (= x177 x150)))) (not (= x205 x216))) (not (= x40 x216))) (not (= x216 x150))) (not (= x216 x246)))))) (not (= x40 x150)))))) (and (and (not (= x246 x158)) (and (and (not (= x229 x158)) (and (not (= x246 x168)) (and (not (= x158 x168)) (and (and (not (= x246 x39)) (and (not (= x39 x158)) (and (not (= x229 x39)) (and (not (= x168 x39)) (and (not (= x248 x246)) (and (and (and (not (= x39 x248)) (not (= x168 x248))) (not (= x229 x248))) (not (= x248 x158)))))))) (not (= x168 x229)))))) (not (= x246 x229)))) (and (and (not (= x263 x150)) (and (and (not (= x263 x82)) (and (not (= x206 x150)) (and (and (and (and (and (and (not (= x98 x206)) (and (not (= x50 x150)) (and (and (not (= x50 x82)) (and (not (= x50 x206)) (not (= x98 x50)))) (not (= x50 x263))))) (not (= x98 x82))) (not (= x98 x263))) (not (= x150 x98))) (not (= x82 x206))) (not (= x206 x263))))) (not (= x150 x82)))) (and (and (and (not (= x40 x46)) (and (not (= x211 x46)) (and (not (= x162 x40)) (and (not (= x211 x162)) (and (not (= x162 x46)) (and (not (= x40 x212)) (and (and (and (not (= x162 x212)) (and (and (and (not (= x46 x64)) (and (not (= x64 x212)) (not (= x162 x64)))) (not (= x211 x64))) (not (= x64 x40)))) (not (= x46 x212))) (not (= x211 x212))))))))) (not (= x211 x40))) (and (and (not (= x17 x205)) (and (not (= x5 x205)) (and (not (= x5 x17)) (and (and (not (= x17 x18)) (and (not (= x18 x5)) (and (and (and (and (and (not (= x122 x205)) (and (and (and (not (= x237 x122)) (not (= x18 x122))) (not (= x5 x122))) (not (= x17 x122)))) (not (= x237 x18))) (not (= x237 x5))) (not (= x17 x237))) (not (= x205 x237))))) (not (= x205 x18)))))) (and (and (not (= x216 x183)) (and (not (= x216 x163)) (and (and (not (= x203 x216)) (and (and (and (not (= x216 x32)) (and (and (and (and (and (not (= x104 x183)) (and (and (not (= x104 x32)) (not (= x203 x104))) (not (= x104 x163)))) (not (= x104 x216))) (not (= x203 x32))) (not (= x163 x32))) (not (= x32 x183)))) (not (= x203 x163))) (not (= x203 x183)))) (not (= x183 x163))))) (and (and (not (= x177 x169)) (and (and (and (not (= x24 x173)) (and (not (= x169 x173)) (and (not (= x16 x177)) (and (and (not (= x169 x16)) (and (not (= x16 x173)) (and (and (and (not (= x137 x169)) (and (not (= x173 x137)) (not (= x16 x137)))) (not (= x137 x24))) (not (= x137 x177))))) (not (= x24 x16)))))) (not (= x173 x177))) (not (= x169 x24)))) (not (= x177 x24)))))))))))
(assert (not (and (= x239 (x193 x132 x132)) (and (and (= (x193 x132 x239) x179) (and (and (and (= x132 (x193 x132 x178)) (and (= x132 (x193 x179 x132)) (and (and (and (= (x193 x179 x201) x178) (and (and (= x194 (x193 x179 x178)) (and (and (and (and (= x132 (x193 x239 x201)) (and (and (= x201 (x193 x239 x178)) (and (and (and (= (x193 x201 x239) x194) (and (and (= (x193 x201 x194) x132) (and (= (x193 x201 x178) x179) (and (= (x193 x194 x132) x179) (and (= (x193 x194 x179) x239) (and (and (= x194 (x193 x194 x201)) (and (and (= x178 (x193 x194 x178)) (and (= x178 (x193 x178 x132)) (and (and (= (x193 x178 x239) x201) (and (= (x193 x178 x201) x179) (and (= (x193 x178 x178) x239) (= (x193 x178 x194) x194)))) (= (x193 x178 x179) x132)))) (= (x193 x194 x194) x201))) (= (x193 x194 x239) x132)))))) (= x239 (x193 x201 x201)))) (= x178 (x193 x201 x179))) (= x201 (x193 x201 x132)))) (= (x193 x239 x194) x239))) (= (x193 x239 x239) x178)) (= (x193 x239 x179) x179)) (= x194 (x193 x239 x132)))) (= (x193 x179 x194) x179))) (= x239 (x193 x179 x239))) (= x201 (x193 x179 x179))))) (= (x193 x132 x194) x178)) (= (x193 x132 x201) x201))) (= x194 (x193 x132 x179))))))
(assert (and (and (not (= x132 x239)) (and (and (and (not (= x179 x201)) (and (and (and (and (and (and (and (and (not (= x239 x178)) (and (not (= x178 x201)) (not (= x178 x194)))) (not (= x179 x178))) (not (= x132 x178))) (not (= x201 x194))) (not (= x239 x194))) (not (= x194 x179))) (not (= x132 x194))) (not (= x201 x239)))) (not (= x132 x201))) (not (= x179 x239)))) (not (= x179 x132))))
(assert (and (and (and (and (and (= x201 (x193 (x193 x201 x120) (x193 x120 x201))) (and (= x178 (x193 (x193 x178 x120) (x193 x120 x178))) (= x194 (x193 (x193 x194 x120) (x193 x120 x194))))) (= (x193 (x193 x239 x120) (x193 x120 x239)) x239)) (= (x193 (x193 x179 x120) (x193 x120 x179)) x179)) (= (x193 (x193 x132 x120) (x193 x120 x132)) x132)) (or (= x132 x120) (or (= x120 x179) (or (or (= x201 x120) (or (= x120 x194) (= x120 x178))) (= x120 x239))))))
(assert (and (not (= (x193 x132 x132) x132)) (and (not (= x179 (x193 x179 x179))) (and (and (not (= (x193 x201 x201) x201)) (and (not (= x194 (x193 x194 x194))) (not (= (x193 x178 x178) x178)))) (not (= x239 (x193 x239 x239)))))))
(assert (and (= x132 (x193 x194 x239)) (and (and (= x201 (x193 x179 x179)) (and (= x178 (x193 x179 x201)) (= x194 (x193 x179 x178)))) (= x239 (x193 x178 x178)))))
(assert (and (or (or (or (= x239 x182) (or (= x201 x182) (or (= x194 x182) (= x178 x182)))) (= x179 x182)) (= x132 x182)) (= (x193 x182 (x193 x182 x182)) x182)))
(assert (let ((x137 (x84 x178)) (x50 (x84 x179)) (x248 (x84 x132)) (x122 (x84 x201)) (x64 (x84 x239)) (x104 (x84 x194))) (and (and (or (= x132 x248) (or (= x248 x179) (or (= x248 x239) (or (= x248 x201) (or (= x248 x194) (= x248 x178)))))) (and (and (and (or (= x122 x132) (or (or (= x122 x239) (or (or (= x194 x122) (= x122 x178)) (= x122 x201))) (= x179 x122))) (and (or (= x132 x104) (or (or (or (or (= x104 x194) (= x104 x178)) (= x104 x201)) (= x104 x239)) (= x104 x179))) (or (= x137 x132) (or (= x137 x179) (or (= x137 x239) (or (or (= x194 x137) (= x178 x137)) (= x201 x137))))))) (or (or (or (= x64 x239) (or (= x64 x201) (or (= x64 x178) (= x194 x64)))) (= x179 x64)) (= x64 x132))) (or (= x50 x132) (or (or (or (or (= x178 x50) (= x50 x194)) (= x201 x50)) (= x50 x239)) (= x179 x50))))) (and (and (and (and (= x122 (x193 x201 (x193 x201 x122))) (and (= x137 (x193 x178 (x193 x178 x137))) (= x104 (x193 x194 (x193 x194 x104))))) (= (x193 x239 (x193 x239 x64)) x64)) (= x50 (x193 x179 (x193 x179 x50)))) (= x248 (x193 x132 (x193 x132 x248)))))))
(assert (let ((x263 (x193 x201 x194)) (x252 (x193 x201 x239)) (x24 (x193 x194 x179)) (x173 (x193 x132 x178)) (x122 (x193 x178 x194)) (x220 (x193 x132 x179)) (x177 (x193 x179 x194)) (x104 (x193 x178 x178)) (x212 (x193 x201 x178)) (x80 (x193 x132 x201)) (x39 (x193 x179 x178)) (x69 (x193 x179 x132)) (x50 (x193 x178 x239)) (x90 (x193 x239 x239)) (x146 (x193 x179 x179)) (x98 (x193 x239 x178)) (x248 (x193 x178 x179)) (x116 (x193 x179 x201)) (x83 (x193 x239 x201)) (x216 (x193 x132 x194)) (x11 (x193 x132 x132)) (x46 (x193 x194 x194)) (x127 (x193 x201 x179)) (x158 (x193 x239 x194)) (x82 (x193 x194 x201)) (x237 (x193 x194 x178)) (x43 (x193 x179 x239)) (x229 (x193 x194 x239)) (x68 (x193 x239 x179)) (x183 (x193 x194 x132)) (x64 (x193 x178 x201)) (x16 (x193 x178 x132)) (x259 (x193 x201 x132)) (x54 (x193 x239 x132)) (x242 (x193 x201 x201)) (x159 (x193 x132 x239))) (let ((x70 (= x194 x16)) (x209 (= x178 x263)) (x94 (= x229 x178)) (x56 (= x132 x11)) (x233 (= x229 x179)) (x232 (= x194 x177)) (x126 (= x248 x194)) (x36 (= x229 x132)) (x31 (= x201 x177)) (x49 (= x201 x127)) (x45 (= x216 x194)) (x30 (= x132 x68)) (x117 (= x201 x158)) (x187 (= x201 x212)) (x154 (= x159 x178)) (x23 (= x178 x90)) (x149 (= x239 x242)) (x86 (= x98 x178)) (x218 (= x237 x132)) (x141 (= x179 x64)) (x246 (= x239 x237)) (x162 (= x104 x179)) (x32 (= x104 x194)) (x160 (= x132 x252)) (x20 (= x216 x178)) (x255 (= x201 x146)) (x223 (= x259 x194)) (x189 (= x179 x252)) (x164 (= x216 x239)) (x33 (= x16 x178)) (x156 (= x54 x194)) (x55 (= x127 x132)) (x124 (= x239 x229)) (x226 (= x132 x212)) (x157 (= x116 x239)) (x89 (= x239 x122)) (x85 (= x201 x82)) (x60 (= x54 x201)) (x72 (= x159 x201)) (x249 (= x201 x43)) (x57 (= x239 x11)) (x264 (= x242 x178)) (x123 (= x183 x201)) (x119 (= x179 x24)) (x25 (= x83 x132)) (x129 (= x132 x146)) (x205 (= x237 x201)) (x167 (= x194 x39)) (x227 (= x194 x43)) (x135 (= x132 x242)) (x266 (= x179 x16)) (x95 (= x179 x216)) (x109 (= x178 x173)) (x47 (= x194 x24)) (x137 (= x178 x104)) (x236 (= x179 x248)) (x121 (= x173 x201)) (x152 (= x68 x201)) (x29 (= x239 x263)) (x214 (= x173 x239)) (x241 (= x64 x194)) (x48 (= x212 x179)) (x17 (= x194 x122)) (x77 (= x11 x194)) (x200 (= x178 x116)) (x108 (= x178 x220)) (x174 (= x201 x24)) (x13 (= x242 x201)) (x38 (= x201 x83)) (x161 (= x178 x80)) (x243 (= x116 x179)) (x125 (= x83 x194)) (x230 (= x259 x178)) (x61 (= x24 x239)) (x34 (= x50 x201)) (x110 (= x98 x132)) (x136 (= x127 x178)) (x15 (= x132 x220)) (x185 (= x179 x46)) (x258 (= x252 x178)) (x27 (= x201 x229)) (x140 (= x127 x194)) (x188 (= x179 x69)) (x190 (= x116 x201)) (x215 (= x43 x178)) (x257 (= x127 x179)) (x171 (= x146 x179)) (x219 (= x252 x194)) (x147 (= x179 x242)) (x14 (= x178 x68)) (x184 (= x239 x248)) (x262 (= x122 x179)) (x207 (= x194 x116)) (x63 (= x220 x239)) (x142 (= x16 x132)) (x10 (= x83 x239)) (x134 (= x64 x201)) (x130 (= x220 x201)) (x62 (= x46 x132)) (x59 (= x194 x212)) (x166 (= x158 x179)) (x186 (= x178 x177)) (x74 (= x237 x179)) (x181 (= x194 x80)) (x53 (= x82 x239)) (x238 (= x11 x201)) (x197 (= x173 x179)) (x93 (= x132 x159)) (x131 (= x178 x83)) (x165 (= x229 x194)) (x256 (= x178 x146)) (x213 (= x90 x179)) (x51 (= x122 x132)) (x26 (= x216 x132)) (x151 (= x11 x179)) (x247 (= x178 x24)) (x106 (= x201 x263)) (x76 (= x50 x179)) (x231 (= x183 x239)) (x254 (= x159 x194)) (x107 (= x248 x132)) (x96 (= x201 x98)) (x65 (= x82 x194)) (x88 (= x69 x194)) (x103 (= x178 x82)) (x40 (= x122 x201)) (x37 (= x132 x82)) (x5 (= x237 x194)) (x169 (= x122 x178)) (x6 (= x80 x201)) (x198 (= x178 x183)) (x78 (= x194 x98)) (x170 (= x239 x146)) (x228 (= x194 x220)) (x175 (= x183 x194)) (x79 (= x146 x194)) (x102 (= x177 x179)) (x245 (= x259 x179)) (x133 (= x90 x194)) (x221 (= x43 x179)) (x260 (= x50 x239)) (x18 (= x104 x239)) (x115 (= x239 x68)) (x101 (= x50 x178)) (x8 (= x201 x216)) (x3 (= x179 x220)) (x1 (= x178 x69)) (x71 (= x39 x179)) (x114 (= x54 x178)) (x35 (= x132 x263)) (x168 (= x237 x178)) (x58 (= x179 x98)) (x208 (= x239 x69)) (x192 (= x201 x259)) (x52 (= x90 x132)) (x180 (= x179 x82)) (x41 (= x68 x194)) (x28 (= x132 x158)) (x150 (= x46 x201)) (x210 (= x83 x179)) (x19 (= x178 x212)) (x204 (= x46 x239)) (x203 (= x104 x201)) (x81 (= x179 x183)) (x22 (= x212 x239)) (x202 (= x16 x239)) (x235 (= x201 x248)) (x222 (= x132 x43)) (x113 (= x158 x194)) (x155 (= x98 x239)) (x67 (= x39 x132)) (x261 (= x239 x39)) (x97 (= x177 x239)) (x42 (= x39 x201)) (x253 (= x178 x248)) (x91 (= x159 x239)) (x4 (= x179 x68)) (x73 (= x64 x239)) (x128 (= x16 x201)) (x12 (= x24 x132)) (x75 (= x178 x39)) (x138 (= x252 x201)) (x211 (= x46 x194)) (x118 (= x54 x132)) (x224 (= x132 x183)) (x112 (= x201 x90)) (x87 (= x132 x177)) (x163 (= x46 x178)) (x206 (= x104 x132)) (x251 (= x158 x178)) (x105 (= x194 x173)) (x225 (= x132 x64)) (x144 (= x173 x132)) (x176 (= x239 x127)) (x143 (= x239 x158)) (x153 (= x132 x116)) (x7 (= x263 x179)) (x66 (= x54 x239)) (x139 (= x201 x69)) (x21 (= x69 x132)) (x240 (= x80 x132)) (x111 (= x159 x179)) (x172 (= x242 x194)) (x250 (= x64 x178)) (x92 (= x43 x239)) (x195 (= x11 x178)) (x234 (= x239 x259)) (x44 (= x194 x50)) (x196 (= x50 x132)) (x100 (= x132 x259)) (x244 (= x90 x239)) (x199 (= x239 x252)) (x2 (= x179 x80)) (x148 (= x54 x179)) (x217 (= x80 x239)) (x9 (= x194 x263))) (and (and (and (and (and (and (or x238 (or (or x72 (or (or x8 x121) x6)) x130)) (or x238 (or (or (or (or x123 x128) x192) x60) x139))) (and (and (or (or (or x114 (or (or x198 x33) x230)) x1) x195) (or x195 (or x108 (or x154 (or x161 (or x20 x109)))))) (and (or (or (or (or x223 (or x175 x70)) x156) x88) x77) (or x77 (or (or x254 (or x181 (or x45 x105))) x228))))) (and (or x57 (or x63 (or (or x217 (or x214 x164)) x91))) (or (or (or (or (or x202 x231) x234) x66) x208) x57))) (and (or (or x3 (or (or x2 (or x197 x95)) x111)) x151) (or x151 (or x188 (or (or (or x81 x266) x245) x148))))) (and (or x56 (or (or x93 (or (or x26 x144) x240)) x15)) (or (or (or x118 (or (or x142 x224) x100)) x21) x56))) (and (and (and (or (or (or (or x153 (or x87 x67)) x222) x129) x21) (or x15 (or (or x30 (or (or x107 x12) x55)) x129))) (and (and (and (and (or x130 (or (or (or x49 (or x235 x174)) x152) x255)) (or (or x255 (or x249 (or (or x42 x31) x190))) x139)) (and (and (or x88 (or x79 (or x227 (or x207 (or x167 x232))))) (or (or (or x41 (or (or x47 x126) x140)) x79) x228)) (and (or (or (or x215 (or (or x186 x75) x200)) x256) x1) (or x108 (or (or x14 (or (or x247 x253) x136)) x256))))) (and (or (or (or x115 (or x176 (or x184 x61))) x170) x63) (or x208 (or x170 (or x92 (or x157 (or x97 x261))))))) (and (or (or (or x221 (or (or x102 x71) x243)) x171) x188) (or x3 (or (or x4 (or (or x119 x236) x257)) x171))))) (and (and (and (or (or (or (or x25 (or x110 x28)) x52) x30) x118) (or (or (or (or x160 (or x196 x36)) x52) x222) x93)) (and (and (or (or x221 (or x213 (or x189 (or x233 x76)))) x111) (or (or (or x213 (or x210 (or x166 x58))) x4) x148)) (and (and (or (or (or (or (or x143 x155) x10) x244) x115) x66) (or x91 (or (or x244 (or x199 (or x124 x260))) x92))) (and (and (or (or (or (or (or x96 x117) x38) x112) x152) x60) (or x72 (or x249 (or x112 (or (or x27 x34) x138))))) (and (and (or (or (or x133 (or x125 (or x78 x113))) x41) x156) (or (or x227 (or x133 (or (or x44 x165) x219))) x254)) (and (or (or (or x23 (or x258 (or x94 x101))) x215) x154) (or (or (or (or x131 (or x251 x86)) x23) x14) x114))))))) (and (and (and (and (or x224 (or x12 (or (or (or x62 x218) x37) x36))) (or x26 (or x87 (or x28 (or x35 (or x51 x62)))))) (and (and (and (or x231 (or (or (or x53 (or x246 x204)) x124) x61)) (or (or x97 (or x143 (or (or x204 x89) x29))) x164)) (and (and (or (or (or x27 (or (or x205 x150) x85)) x174) x123) (or x8 (or (or x117 (or (or x150 x40) x106)) x31))) (and (and (or x198 (or x247 (or x94 (or (or x163 x168) x103)))) (or x20 (or (or (or x209 (or x169 x163)) x251) x186))) (and (or x175 (or x47 (or x165 (or x65 (or x5 x211))))) (or (or (or x113 (or (or x17 x211) x9)) x232) x45))))) (and (or x81 (or (or (or x180 (or x74 x185)) x233) x119)) (or (or x102 (or x166 (or x7 (or x185 x262)))) x95)))) (and (and (or (or x67 (or (or (or x218 x206) x226) x110)) x144) (or (or x107 (or (or x225 (or x51 x206)) x196)) x142)) (and (and (and (or x202 (or x184 (or x260 (or x73 (or x89 x18))))) (or (or (or (or x22 (or x246 x18)) x155) x261) x214)) (and (and (or (or (or (or (or x203 x205) x187) x96) x42) x121) (or x128 (or x235 (or (or x134 (or x203 x40)) x34)))) (and (and (or (or (or (or x250 (or x137 x169)) x101) x253) x33) (or (or (or (or x19 (or x137 x168)) x86) x75) x109)) (and (or x70 (or x126 (or x44 (or x241 (or x17 x32))))) (or (or (or x78 (or (or x32 x5) x59)) x167) x105))))) (and (or x266 (or x236 (or (or (or x262 x162) x141) x76))) (or x197 (or x71 (or (or (or x74 x162) x48) x58))))))) (and (and (or (or (or x25 (or (or x37 x225) x135)) x153) x240) (or (or x55 (or (or (or x226 x35) x135) x160)) x100)) (and (and (or x245 (or (or (or x147 (or x48 x7)) x189) x257)) (or (or x243 (or (or (or x141 x180) x147) x210)) x2)) (and (and (and (and (or x223 (or x140 (or x219 (or (or x59 x9) x172)))) (or (or (or (or x172 (or x241 x65)) x125) x207) x181)) (and (or (or x200 (or x131 (or (or x250 x103) x264))) x161) (or x230 (or x136 (or x258 (or (or x19 x209) x264)))))) (and (or (or x190 (or x38 (or (or x134 x85) x13))) x6) (or (or x49 (or x138 (or (or x106 x187) x13))) x192))) (and (or x234 (or (or x199 (or x149 (or x29 x22))) x176)) (or x217 (or (or (or x149 (or x53 x73)) x10) x157)))))))))))))
(assert (let ((x122 (x193 x201 x265)) (x137 (x193 x178 x265)) (x104 (x193 x194 x265)) (x64 (x193 x239 x265)) (x248 (x193 x132 x265)) (x50 (x193 x179 x265))) (and (and (and (not (= (x193 x50 x179) x50)) (and (and (and (not (= x104 (x193 x104 x194))) (not (= (x193 x137 x178) x137))) (not (= x122 (x193 x122 x201)))) (not (= (x193 x64 x239) x64)))) (not (= x248 (x193 x248 x132)))) (or (or (= x265 x179) (or (= x265 x239) (or (= x265 x201) (or (= x265 x178) (= x194 x265))))) (= x265 x132)))))
(check-sat)
(exit)
